2599
1500000
999376
996877
996877
996877
996877
996877
996877
996877
996877
996877
979766
979766
979766
979766
979766
979766
979766
979766
979766
979766
979766
979059
979059
979059
979059
979059
979059
979059
979059
979059
979059
970897
970897
970897
970897
970897
970897
970897
970897
970897
970897
970897
970897
970897
970897
970897
970897
970897
970897
970897
969923
969923
969923
969923
969923
969923
969923
969923
969923
965098
965098
965098
965098
965098
965098
965098
965098
965098
964739
964739
964739
964739
964739
964739
964739
964739
964739
964739
964739
964739
959266
959266
959266
959266
959266
959266
959266
959266
959266
959266
959266
959266
959266
959266
959266
959266
959266
952522
952522
952522
943233
943233
939466
939466
939466
939466
939466
939466
939466
939466
939466
939466
939466
939466
939466
939466
939466
939466
939466
939466
938861
938861
938861
938861
938861
938861
938861
938861
938861
938861
938861
938861
938861
938861
938861
938861
938861
938861
938861
938861
929347
929347
929347
929347
929347
929347
929347
929347
927148
927148
927148
927148
927148
927148
927148
927148
927148
927148
927148
927148
922435
922435
922435
922435
922435
920082
920082
920082
920082
920082
920082
920082
920082
920082
920082
920082
920082
920082
920082
915816
915816
915816
915816
915816
915816
915816
915816
915816
915816
915816
915816
915816
915816
915816
915816
915816
915816
914421
914421
914421
914421
914421
913858
913858
913858
902399
902399
902399
902399
902399
899512
899512
899512
899512
899512
899512
899512
899512
899512
899512
899512
899512
892264
892264
892264
892264
892264
892264
892264
892264
892264
892264
892264
883666
883666
883666
883666
883666
883666
883666
883666
883666
883666
883666
883666
883666
883666
883666
883666
883666
883666
880485
880485
880485
880485
880485
880485
880485
880485
880485
880485
880485
878910
878910
876924
876924
876924
876924
876924
876924
876924
876924
876924
876924
876924
876924
876924
876924
876924
876924
876924
876924
876480
876480
876480
876480
876480
876480
876480
876480
876480
876480
876480
874483
874483
874483
874483
874483
874483
874483
874483
874483
874483
874483
874483
874483
874483
874483
874483
874483
874483
874483
874483
871471
871471
871471
871471
871471
871471
869980
869980
869980
869980
869980
869980
865249
865249
865249
865249
865249
865249
865249
865249
865249
865249
865249
865249
865249
865249
865249
865249
865249
865249
865249
865249
851789
851789
851789
851789
851789
851789
851789
851789
851789
851789
851789
851789
851789
843319
843319
843319
843319
843319
843319
843319
843319
843319
843319
843319
843319
843319
843319
843319
843319
843319
843319
843319
843319
839778
839778
839778
839778
839778
839778
838964
838964
836020
836020
836020
836020
836020
836020
836020
836020
836020
836020
836020
836020
836020
836020
836020
836020
836020
836020
836020
836020
834955
834955
834955
834955
834955
834955
834955
833371
833371
833371
833371
833371
833371
833371
833371
833371
833371
833371
833371
833371
833371
830003
830003
830003
830003
830003
830003
830003
830003
830003
830003
830003
830003
830003
830003
825723
825723
824466
824466
824466
824466
824466
824466
824466
821400
821400
821400
821400
821400
821400
821400
821400
821400
821400
821400
820530
820530
820530
820530
820530
820530
819573
819573
819573
819573
817217
817217
817217
817217
817217
817217
817217
817217
817217
817217
817217
817217
817217
817217
811419
811419
811419
811419
811419
811419
811419
811419
811419
811419
811419
811419
811419
811419
806964
806964
806964
806964
806964
806964
806964
806964
806964
806964
801798
801798
801798
801798
801798
801798
801798
801798
801798
801798
801798
801798
801798
801798
801798
801798
801798
801798
801798
799082
799082
799082
799082
799082
799082
799082
799082
799082
799082
799082
799082
799082
799082
799082
799082
799082
799082
799082
799082
798335
798335
798335
798335
791124
791124
791124
791124
791124
791124
791124
791124
790048
790048
790048
790048
790048
790048
790048
790048
790048
790048
790048
790048
790048
790048
790048
790048
790048
790048
784851
784851
784851
784102
784102
784102
784102
784102
784102
784102
784102
784102
784102
784102
784102
784102
784102
784102
770618
770618
770618
770618
768760
768760
768760
768760
768760
768760
768760
764669
764669
764669
764669
764669
764669
764669
764669
764669
764669
764669
764669
764669
764669
764669
764669
764669
764669
764669
764669
752357
752357
752357
745802
745802
745802
745802
743260
743260
743260
743260
743260
743260
743260
743260
743260
743260
743260
739256
739256
739256
739256
739256
739256
739256
739256
739256
739256
739256
735814
735814
735814
733536
733536
733536
733536
733536
733536
733536
733536
733536
733536
733536
733536
733536
733536
733536
733065
733065
733065
733065
733065
733065
733065
733065
733065
733065
733065
733065
733065
733065
733065
733065
733065
732302
732302
732302
732302
732302
732302
732302
732302
732302
732302
732302
732302
729414
729414
729414
729414
729414
729414
729414
729414
729266
729266
729266
729266
729266
729266
729266
726202
726202
726202
726202
721995
719735
719735
719735
713035
713035
713035
713035
713035
711983
711983
711983
711983
711983
711844
711844
711844
711844
711844
711844
711844
711844
711844
711844
711844
711844
711844
711844
711844
709645
697129
697129
697129
697129
697129
689002
689002
689002
689002
689002
689002
689002
689002
689002
689002
689002
680952
680952
680952
680952
680952
680952
680952
680952
680952
680952
680952
680952
680952
680952
679759
679759
679759
679759
672562
672562
672562
672562
672562
672562
672562
672562
672562
672562
672562
672562
672562
672562
670740
670740
670740
670740
670740
670740
670740
670740
670740
670740
670740
670740
666805
666805
666805
666805
666805
666805
666805
666805
666805
666805
666805
666805
666805
666805
666805
666805
666805
666805
666805
663656
663656
663656
663656
663656
663656
663656
663656
657142
657142
657142
657142
657142
648727
648727
648727
648727
648727
648727
648727
648727
648727
648727
648727
648727
648727
648727
648727
648727
641927
641927
641927
641927
641927
641927
641927
634235
634235
634235
634235
634235
634235
634235
634235
634235
634235
634235
634235
634235
634235
634235
634235
634235
634235
634235
634235
630108
630108
628361
623569
623569
623569
623569
623569
623569
623569
623569
620135
620135
620135
620135
617596
617596
617596
617596
617596
617596
607022
607022
607022
607022
607022
607022
607022
607022
607022
607022
607022
605579
605579
605579
605579
605579
605579
605579
605579
605579
605579
605579
605579
605579
591154
591154
591154
591154
591154
591154
591154
591154
591154
588713
588713
588713
588713
588713
588713
588713
588713
588713
588713
588713
588713
588713
588713
588713
588713
588713
588713
586164
586164
586164
586164
586164
586164
586164
586164
586164
586164
586164
586164
586164
586164
573796
573796
573796
573796
573796
573796
573796
573796
573796
573796
573796
573796
573796
573796
573796
573796
573796
566136
566136
566136
566136
566136
566136
566136
566136
566136
566136
566136
566136
566136
566136
563048
563048
560254
560254
560254
560254
560254
560254
553172
553172
553172
553172
553172
548961
546118
546118
546118
546118
535267
535267
535267
535267
535267
535267
535267
535267
535267
535267
535267
528125
528125
528125
528125
528125
526803
526803
526803
526803
526803
526803
526803
526803
526803
518181
518181
518181
518181
518181
518181
518181
518181
518181
518181
518181
518181
518145
518145
518145
518145
518145
518145
518145
515150
515150
515150
515150
515150
515150
515150
515150
515150
515150
515150
515150
515150
515150
510866
510866
510866
510866
510866
510866
510866
510866
510866
510866
510866
510866
510866
510866
510866
510866
510866
506141
506141
506141
506141
506141
506141
506141
506141
506141
506141
506141
506141
506141
506141
506141
501953
501953
500080
500080
500080
500080
500080
500080
500080
500080
500080
500080
500080
500080
500080
500080
500080
494657
494657
494657
494657
494657
494657
494657
494657
494657
494657
494657
494657
494657
494657
494657
494657
494657
494657
494657
490459
490459
490459
490459
490459
490459
490459
490459
490459
490459
490459
490459
490459
490459
490459
490459
490459
490459
490459
490459
489046
489046
489046
489046
489046
489046
489046
489046
489046
489046
489046
489046
489046
489046
489046
483402
483402
483402
483402
483402
483402
483402
483402
483402
483402
483402
483402
483402
483402
483402
483402
483402
483402
474476
473740
473740
473740
473740
473740
473740
473740
473740
473740
473740
473740
473740
473740
473740
473740
473740
469406
469406
469406
463945
463945
463945
463945
463945
463945
463945
463945
463945
463945
463945
463945
463945
463945
463945
463945
463945
463945
463730
456241
456241
456241
456241
456241
456241
456241
456241
456241
456241
456241
456241
456241
456241
456241
456241
456241
456241
454244
454244
454244
454244
454244
450635
450635
450635
450635
450635
450635
450635
450635
450635
450635
445757
445757
445757
445757
445757
445757
445757
445757
445757
445757
445757
445757
445757
445757
445757
445757
445757
445757
445757
442707
442707
442707
442707
442707
442707
442707
442707
442707
442707
442707
442707
442707
442707
442707
442707
442707
442707
442707
442707
431924
431924
431924
427149
427149
427149
427149
427149
427149
427149
427149
427149
427149
427149
427149
427149
427149
425548
425548
425548
425548
425548
425548
425548
425548
425548
425548
425548
425548
425548
425548
425548
425548
425548
425548
425548
425548
423235
423235
423235
423235
422119
422119
422119
422119
422119
422119
422119
422119
422119
422119
411646
411646
411646
411646
411646
411646
411646
411646
411646
406463
406463
404693
404693
404693
404693
404693
404693
404693
404693
404693
404693
404693
404693
404693
404693
403564
403564
403564
403564
403564
403270
403270
403270
403270
403270
403270
403270
403270
403270
403270
403270
401759
400603
400603
400603
400603
400603
400603
400603
397814
397814
397814
397814
391006
391006
391006
391006
391006
391006
385418
385418
385418
385418
385418
385418
385418
385418
385418
385418
385418
385418
385418
385418
385418
385418
385418
380953
380953
380953
380953
380953
380921
380921
380921
380921
380921
380921
380921
380921
380921
380921
380921
380921
380921
380921
380921
380921
380921
380921
380921
378591
378591
378591
378591
378591
378591
378591
378591
378591
378591
378591
378591
378591
378591
378591
378591
378591
378591
378591
376325
376325
376325
376325
376325
376325
376325
376325
376325
376325
376325
376325
372702
372702
372702
372702
372702
372702
372702
372702
372702
372702
372702
372702
372702
372702
372702
372702
371931
371931
371931
370895
370895
370895
370895
370895
370895
370895
370895
370895
370895
370895
370895
370895
368092
368092
368092
368092
368092
368092
368092
366922
366922
366922
366922
361508
361508
361508
361508
361508
361508
361508
361508
361508
361508
361508
361508
361508
361508
361508
361508
360660
360660
360660
360660
358873
358873
358873
358873
358873
358873
358873
357764
357764
357764
357764
357764
357764
357764
357764
357764
357764
357764
357764
353623
353623
353623
353623
353623
353623
353623
353623
353623
353623
353623
353623
353623
353623
353623
353623
353623
353623
353623
353623
351954
351954
351954
351954
351954
351954
351954
351954
351954
343972
343972
343972
343972
343972
343972
343972
343972
343972
343972
343972
343972
343972
343972
343972
343972
343972
343972
343972
343972
343921
343921
343921
343921
343921
343921
343921
343921
343921
343921
342928
342928
342928
342928
342928
342928
342928
342928
342928
342928
342928
340601
340601
340601
339835
339835
339835
339835
339835
339835
339835
339835
339835
339835
339835
339835
330141
330141
330141
330141
330141
330141
330141
330141
330141
330141
324538
324538
324538
324538
324538
324538
324538
324538
324538
324538
324538
324538
324538
324538
324538
324538
324538
324538
324538
324538
322815
322815
322815
322815
322815
322815
322815
322815
322815
322815
322815
322815
322815
322815
322815
322815
322815
322638
322638
320804
320804
320804
320804
320804
317055
317055
317055
317055
317055
317055
317055
317055
317055
317055
317055
317055
317055
317055
317055
317055
317055
314612
314612
314612
314612
314612
314612
314612
314612
314612
314612
314612
314612
314612
314612
314612
308613
308613
308613
308613
308613
308613
308613
308613
308613
308613
308613
308613
308613
308613
308613
308267
308267
308267
308267
308267
308267
308267
308267
308267
308267
308267
308267
308178
308178
308178
308178
308178
308178
308178
308178
308178
308178
308178
308178
308178
308178
308178
308178
308178
308178
308178
308178
307067
307067
307067
307067
307067
307067
307067
307067
305350
305350
305350
305350
302564
302564
302564
302564
302564
302564
302564
302564
302564
302564
302564
302564
302564
302564
302564
301261
301261
301261
301261
301261
301261
301261
301261
298859
298859
298335
298335
298335
298335
298335
298335
298335
298335
298335
298335
298335
298335
298335
298335
298335
298335
295069
294548
294548
294548
294548
294548
294548
294548
294548
294548
294548
294548
294548
294548
294548
294548
294548
294548
294548
294548
294548
282515
282515
281030
281030
281030
281030
281030
281030
281030
281030
281030
281030
281030
281030
281030
281030
281030
274624
274624
274624
274624
274624
274624
274624
274624
274624
266082
266082
265310
265310
265310
264461
264461
264461
264461
264461
264461
264461
264461
264461
264461
264461
264461
264461
264461
264461
264461
261004
261004
261004
261004
261004
258737
258737
258737
258737
258737
258737
258737
258737
258737
258737
258737
258737
258737
258737
258737
258737
258737
256766
256766
256766
256766
256766
256766
256766
254808
254808
254808
254808
254808
254808
254808
254808
254808
254808
254808
254808
254808
254808
254808
254808
253753
253753
253753
253753
253753
253753
253753
253753
253753
253753
253753
244757
244757
244757
244757
244757
244757
244757
244757
244757
244757
244757
244757
244757
244757
244757
244757
244757
244757
244757
244757
241125
241125
238418
238418
238418
238418
238418
238418
238418
238418
238418
238418
238418
238418
238418
238418
238418
237825
236470
236470
236470
236470
236470
236470
236470
236470
236470
236470
236470
236470
231773
231773
231773
231773
231773
231773
231773
231773
229577
229577
229577
229577
229577
229577
229577
229577
229577
229577
229577
229577
229577
228096
228096
228096
228096
228096
228096
228096
228096
228096
228096
228096
228096
228096
228096
228096
226491
226491
226491
226491
226491
226491
226491
226491
223428
223428
223428
223428
223428
213369
213369
213369
213369
213369
213369
200059
200059
200059
200059
200059
200059
200059
200059
200059
200059
200059
200059
200059
200059
200059
200059
200059
196657
196657
196657
196657
196657
196657
196657
196657
196657
196657
196657
196657
196657
196657
196657
196657
196657
196657
189921
189921
189921
189921
189921
189921
189921
189921
184518
184518
182071
182071
182071
182071
182071
182071
182071
182071
182071
182071
182071
182071
182071
182071
182071
180865
164806
164806
164806
164806
164806
164806
164806
164806
164806
164806
164515
164515
164515
164515
164515
164515
159047
159047
159047
159047
159047
159047
159047
158718
158718
158718
158718
158718
158718
158718
158718
158718
158718
158718
158718
158718
158718
149480
149480
149480
149480
149480
149480
149480
149480
149480
149480
149480
149480
149480
149480
149480
149480
149029
149029
149029
149029
149029
149029
149029
149029
149029
149029
149029
149029
149029
149029
149029
149029
149029
149029
146673
146673
146673
146673
146673
140133
140133
140133
140133
140133
140133
140133
140133
140133
140133
138404
138404
138404
138404
138404
138404
138404
138404
138404
138404
138404
138404
138404
138404
138404
138404
138404
137136
137136
127255
127255
127255
127255
127255
127255
127255
127255
127255
127255
127255
127255
127255
127255
127255
127255
127255
127255
127255
127255
120042
120042
120042
120042
120042
120042
120042
120042
120042
120042
120042
120042
120042
120042
120042
120042
114838
114838
114838
114838
114838
114838
114838
114838
114838
114838
114838
114838
114838
114838
114838
114838
114838
114838
114838
113301
113301
113301
112176
112176
112176
112176
112176
112176
112176
112176
112176
112176
112176
112176
112176
110403
110403
110403
110403
110403
110403
110403
110403
110403
110403
110403
110403
110403
110403
110403
110403
110403
110403
110403
110403
109870
109870
109870
109870
109870
109870
108396
108396
108396
108396
108396
108396
108396
108396
108396
108396
91945
91945
91945
91945
91945
91945
91945
91945
91945
91945
89691
86382
86382
86382
86382
86382
86382
82664
82664
82664
82664
82664
82664
82664
82664
82664
82664
82664
82664
82664
82664
82664
82664
70812
70812
70812
70812
70812
70812
70812
70812
70812
70812
70812
70812
70812
70812
70812
70812
70812
70812
70812
70812
67241
67241
67241
63643
63643
63643
63643
63643
63643
63643
63643
63145
63145
63145
63145
63145
63145
63145
63145
63145
63145
63145
50475
50475
50475
50475
50475
50475
50475
50475
50475
50475
50475
50475
50475
50475
50475
50475
50475
46300
46300
46300
46300
46300
46300
46300
46300
46300
46300
46300
46300
46300
46300
46300
46300
46300
46100
46100
46100
46100
46100
46100
46100
46100
46100
46100
46100
46100
46100
46100
46100
46100
46100
42728
42728
42728
42728
42728
42728
42094
42094
42094
37084
37084
37084
37084
37084
37084
37084
32441
32441
32441
32441
32441
32441
32441
32441
32441
32441
32441
32017
32017
32017
32017
32017
32017
32017
32017
30215
30215
30215
30215
30215
30215
30215
30215
30215
30215
30215
30215
30215
30215
30215
30215
30215
28870
28870
28870
28870
28870
28870
28870
28870
23881
23881
23881
23881
23881
23881
23881
23881
23881
23881
23881
23881
23881
23881
23881
23881
23881
21421
21421
21421
21421
21421
21421
21421
21421
21421
21421
21421
16340
16340
16340
16340
16340
16340
16340
16340
16340
14897
14897
14897
14897
14897
14897
14897
14897
14897
14897
14897
14897
14897
14897
14897
14897
14897
14897
14897
14897
13272
13272
13272
13272
13272
13272
13272
